\ Model MPC
\ LP format - for model browsing. Use MPS format to capture full model detail.
Minimize
 [ 2.17014e-06 y[0,0] ^2 + 1.82326e-07 y[0,1] ^2 + 1.82326e-07 y[0,2] ^2
   + 1.54707e-06 y[0,3] ^2 + 2.17014e-06 y[1,0] ^2 + 1.82326e-07 y[1,1] ^2
   + 1.82326e-07 y[1,2] ^2 + 1.54707e-06 y[1,3] ^2 + 2.17014e-06 y[2,0] ^2
   + 1.82326e-07 y[2,1] ^2 + 1.82326e-07 y[2,2] ^2 + 1.54707e-06 y[2,3] ^2
   + 2.17014e-06 y[3,0] ^2 + 1.82326e-07 y[3,1] ^2 + 1.82326e-07 y[3,2] ^2
   + 1.54707e-06 y[3,3] ^2 + 2.17014e-06 y[4,0] ^2 + 1.82326e-07 y[4,1] ^2
   + 1.82326e-07 y[4,2] ^2 + 1.54707e-06 y[4,3] ^2 + 2.17014e-06 y[5,0] ^2
   + 1.82326e-07 y[5,1] ^2 + 1.82326e-07 y[5,2] ^2 + 1.54707e-06 y[5,3] ^2
   + 0.1 z[0,0] ^2 + 0.5 z[0,1] ^2 + 0.1 z[0,2] ^2 + 0.5 z[0,3] ^2
   + 0.1 z[1,0] ^2 + 0.5 z[1,1] ^2 + 0.1 z[1,2] ^2 + 0.5 z[1,3] ^2
   + 0.1 z[2,0] ^2 + 0.5 z[2,1] ^2 + 0.1 z[2,2] ^2 + 0.5 z[2,3] ^2
   + 0.1 z[3,0] ^2 + 0.5 z[3,1] ^2 + 0.1 z[3,2] ^2 + 0.5 z[3,3] ^2
   + 0.1 z[4,0] ^2 + 0.5 z[4,1] ^2 + 0.1 z[4,2] ^2 + 0.5 z[4,3] ^2 ] / 2 
Subject To
 R0: x[0,0] = 27
 R1: x[0,1] = 130
 R2: x[0,2] = 25
 R3: x[0,3] = 207
 R4: u[0,0] - u[0,1] = 0
 R5: u[0,3] - u_41[0,0] - u_43[0,0] = 0
 R6: u[0,2] + u_41[0,0] - u_43[0,0] = -3
 R7: u[0,0] + u[0,2] + u_41[0,0] = 101
 R8: u[0,0] >= 39
 R9: u[0,2] >= 6
 R10: u[0,2] - u_41[0,0] >= 0
 R11: u[0,3] >= 51
 R12: u[0,0] - u[0,2] >= 0
 R13: u_41[0,0] <= 30
 R14: 110 C_dummy = 1
 R15: - x[0,0] + y[0,0] = 0
 R16: - x[0,1] + y[0,1] = 0
 R17: - x[0,2] + y[0,2] = 0
 R18: - x[0,3] + y[0,3] = 0
 R19: z[0,0] = 0
 R20: z[0,1] = 0
 R21: z[0,2] = 0
 R22: z[0,3] = 0
 R23: u[1,0] - u[1,1] = 0
 R24: u[1,3] - u_41[1,0] - u_43[1,0] = 0
 R25: u[1,2] + u_41[1,0] - u_43[1,0] = -3
 R26: u[1,0] + u[1,2] + u_41[1,0] = 101
 R27: u[1,0] >= 39
 R28: u[1,2] >= 6
 R29: u[1,2] - u_41[1,0] >= 0
 R30: u[1,3] >= 51
 R31: u[1,0] - u[1,2] >= 0
 R32: u_41[1,0] <= 30
 R33: 110 C_dummy = 1
 R34: - x[1,0] + y[1,0] = 0
 R35: - x[1,1] + y[1,1] = 0
 R36: - x[1,2] + y[1,2] = 0
 R37: - x[1,3] + y[1,3] = 0
 R38: u[0,0] - u[1,0] + z[1,0] = 0
 R39: u[0,1] - u[1,1] + z[1,1] = 0
 R40: u[0,2] - u[1,2] + z[1,2] = 0
 R41: u[0,3] - u[1,3] + z[1,3] = 0
 R42: u[2,0] - u[2,1] = 0
 R43: u[2,3] - u_41[2,0] - u_43[2,0] = 0
 R44: u[2,2] + u_41[2,0] - u_43[2,0] = -3
 R45: u[2,0] + u[2,2] + u_41[2,0] = 101
 R46: u[2,0] >= 39
 R47: u[2,2] >= 6
 R48: u[2,2] - u_41[2,0] >= 0
 R49: u[2,3] >= 51
 R50: u[2,0] - u[2,2] >= 0
 R51: u_41[2,0] <= 30
 R52: 110 C_dummy = 1
 R53: - x[2,0] + y[2,0] = 0
 R54: - x[2,1] + y[2,1] = 0
 R55: - x[2,2] + y[2,2] = 0
 R56: - x[2,3] + y[2,3] = 0
 R57: u[0,0] - u[2,0] + z[2,0] = 0
 R58: u[0,1] - u[2,1] + z[2,1] = 0
 R59: u[0,2] - u[2,2] + z[2,2] = 0
 R60: u[0,3] - u[2,3] + z[2,3] = 0
 R61: u[3,0] - u[3,1] = 0
 R62: u[3,3] - u_41[3,0] - u_43[3,0] = 0
 R63: u[3,2] + u_41[3,0] - u_43[3,0] = -3
 R64: u[3,0] + u[3,2] + u_41[3,0] = 101
 R65: u[3,0] >= 39
 R66: u[3,2] >= 6
 R67: u[3,2] - u_41[3,0] >= 0
 R68: u[3,3] >= 51
 R69: u[3,0] - u[3,2] >= 0
 R70: u_41[3,0] <= 30
 R71: 110 C_dummy = 1
 R72: - x[3,0] + y[3,0] = 0
 R73: - x[3,1] + y[3,1] = 0
 R74: - x[3,2] + y[3,2] = 0
 R75: - x[3,3] + y[3,3] = 0
 R76: u[0,0] - u[3,0] + z[3,0] = 0
 R77: u[0,1] - u[3,1] + z[3,1] = 0
 R78: u[0,2] - u[3,2] + z[3,2] = 0
 R79: u[0,3] - u[3,3] + z[3,3] = 0
 R80: u[4,0] - u[4,1] = 0
 R81: u[4,3] - u_41[4,0] - u_43[4,0] = 0
 R82: u[4,2] + u_41[4,0] - u_43[4,0] = -3
 R83: u[4,0] + u[4,2] + u_41[4,0] = 101
 R84: u[4,0] >= 39
 R85: u[4,2] >= 6
 R86: u[4,2] - u_41[4,0] >= 0
 R87: u[4,3] >= 51
 R88: u[4,0] - u[4,2] >= 0
 R89: u_41[4,0] <= 30
 R90: 110 C_dummy = 1
 R91: - x[4,0] + y[4,0] = 0
 R92: - x[4,1] + y[4,1] = 0
 R93: - x[4,2] + y[4,2] = 0
 R94: - x[4,3] + y[4,3] = 0
 R95: u[0,0] - u[4,0] + z[4,0] = 0
 R96: u[0,1] - u[4,1] + z[4,1] = 0
 R97: u[0,2] - u[4,2] + z[4,2] = 0
 R98: u[0,3] - u[4,3] + z[4,3] = 0
 R99: - x[5,0] + y[5,0] = 0
 R100: - x[5,1] + y[5,1] = 0
 R101: - x[5,2] + y[5,2] = 0
 R102: - x[5,3] + y[5,3] = 0
 qc0: - x[0,0] + x[1,0] + [ 25.69722222222222 u[0,0] * C_dummy ] = 55
 qc1: - x[0,1] + x[1,1] + [ 46.13888888888889 u[0,1] * C_dummy ] = 35
 qc2: - x[0,2] + x[1,2] + [ 61.63055555555555 u[0,2] * C_dummy ] = 44
 qc3: - x[0,3] + x[1,3] + [ 97.77777777777777 u[0,3] * C_dummy ] = 127
 qc4: - x[1,0] + x[2,0] + [ 25.69722222222222 u[1,0] * C_dummy ] = 54
 qc5: - x[1,1] + x[2,1] + [ 46.13888888888889 u[1,1] * C_dummy ] = 89
 qc6: - x[1,2] + x[2,2] + [ 61.63055555555555 u[1,2] * C_dummy ] = 45
 qc7: - x[1,3] + x[2,3] + [ 97.77777777777777 u[1,3] * C_dummy ] = 127
 qc8: - x[2,0] + x[3,0] + [ 25.69722222222222 u[2,0] * C_dummy ] = 57
 qc9: - x[2,1] + x[3,1] + [ 46.13888888888889 u[2,1] * C_dummy ] = 71
 qc10: - x[2,2] + x[3,2] + [ 61.63055555555555 u[2,2] * C_dummy ] = 48
 qc11: - x[2,3] + x[3,3] + [ 97.77777777777777 u[2,3] * C_dummy ] = 142
 qc12: - x[3,0] + x[4,0] + [ 25.69722222222222 u[3,0] * C_dummy ] = 55
 qc13: - x[3,1] + x[4,1] + [ 46.13888888888889 u[3,1] * C_dummy ] = 38
 qc14: - x[3,2] + x[4,2] + [ 61.63055555555555 u[3,2] * C_dummy ] = 47
 qc15: - x[3,3] + x[4,3] + [ 97.77777777777777 u[3,3] * C_dummy ] = 131
 qc16: - x[4,0] + x[5,0] + [ 25.69722222222222 u[4,0] * C_dummy ] = 55
 qc17: - x[4,1] + x[5,1] + [ 46.13888888888889 u[4,1] * C_dummy ] = 60
 qc18: - x[4,2] + x[5,2] + [ 61.63055555555555 u[4,2] * C_dummy ] = 47
 qc19: - x[4,3] + x[5,3] + [ 97.77777777777777 u[4,3] * C_dummy ] = 120
Bounds
 u_41[0,0] >= 15
 u_41[1,0] >= 15
 u_41[2,0] >= 15
 u_41[3,0] >= 15
 u_41[4,0] >= 15
 u_43[0,0] >= 15
 u_43[1,0] >= 15
 u_43[2,0] >= 15
 u_43[3,0] >= 15
 u_43[4,0] >= 15
 y[0,0] free
 y[0,1] free
 y[0,2] free
 y[0,3] free
 y[1,0] free
 y[1,1] free
 y[1,2] free
 y[1,3] free
 y[2,0] free
 y[2,1] free
 y[2,2] free
 y[2,3] free
 y[3,0] free
 y[3,1] free
 y[3,2] free
 y[3,3] free
 y[4,0] free
 y[4,1] free
 y[4,2] free
 y[4,3] free
 y[5,0] free
 y[5,1] free
 y[5,2] free
 y[5,3] free
 z[0,0] free
 z[0,1] free
 z[0,2] free
 z[0,3] free
 z[1,0] free
 z[1,1] free
 z[1,2] free
 z[1,3] free
 z[2,0] free
 z[2,1] free
 z[2,2] free
 z[2,3] free
 z[3,0] free
 z[3,1] free
 z[3,2] free
 z[3,3] free
 z[4,0] free
 z[4,1] free
 z[4,2] free
 z[4,3] free
Generals
 u[0,0] u[0,1] u[0,2] u[0,3] u[1,0] u[1,1] u[1,2] u[1,3] u[2,0] u[2,1]
 u[2,2] u[2,3] u[3,0] u[3,1] u[3,2] u[3,3] u[4,0] u[4,1] u[4,2] u[4,3]
 u_41[0,0] u_41[1,0] u_41[2,0] u_41[3,0] u_41[4,0] u_43[0,0] u_43[1,0]
 u_43[2,0] u_43[3,0] u_43[4,0]
End
